n = 35;
lu = [|-366, -162
      |-1119, 353
      |-427, -322
      |395, 1079
      |-1204, -182
      |-495, 233
      |-1114, -21
      |-924, 275
      |-1190, -783
      |199, 511
      |-828, 504
      |379, 877
      |2, 1152
      |-953, -132
      |539, 659
      |-171, 1141
      |88, 1090
      |-1223, -1039
      |-455, 745
      |58, 335
      |-68, 362
      |212, 736
      |-669, 948
      |-936, 543
      |-519, -6
      |-261, -44
      |-819, 402
      |710, 876
      |-864, 484
      |-1158, -1087
      |-1208, 488
      |1135, 1193
      |-707, 325
      |-320, 1050
      |-742, 993|];
